p cnf 11 21
-11 -10 -4 0
11 8 1 0
-11 -7 -6 0
-11 -6 -4 0
-11 -6 2 0
10 7 -5 0
10 7 1 0
10 3 2 0
9 -8 -2 0
9 7 -5 0
-9 -7 -2 0
9 -5 -4 0
-9 -4 -2 0
8 -7 -5 0
8 -7 -1 0
8 4 -2 0
-7 -6 4 0
-7 -5 4 0
7 5 3 0
7 -5 3 0
7 4 -3 0
